     Program PWSCF v.6.6 starts on  7Jan2024 at 11:33: 0

     Fft bands division:     nmany     =       1
     Waiting for input...
     Reading input from standard input

     Current dimensions of program PWSCF are:
     Max number of different atomic species (ntypx) = 10
     Max number of k-points (npk) =  40000
     Max angular momentum in pseudopotentials (lmaxx) =  3

     Subspace diagonalization in iterative solution of the eigenvalue problem:
     a serial algorithm will be used

     bravais-lattice index     =            4
     lattice parameter (alat)  =       4.6500  a.u.
     unit-cell volume          =     348.2968 (a.u.)^3
     number of atoms/cell      =            2
     number of atomic types    =            1
     number of electrons       =         8.00
     number of Kohn-Sham states=            4
     kinetic-energy cutoff     =      75.0000  Ry
     charge density cutoff     =     300.0000  Ry
     convergence threshold     =      1.0E-08
     mixing beta               =       0.7000
     number of iterations used =            8  plain     mixing
     Exchange-correlation= PBE
                           (   1   4   3   4   0   0   0)

     celldm(1)=   4.650000  celldm(2)=   0.000000  celldm(3)=   4.000000
     celldm(4)=   0.000000  celldm(5)=   0.000000  celldm(6)=   0.000000

     crystal axes: (cart. coord. in units of alat)
               a(1) = (   1.000000   0.000000   0.000000 )
               a(2) = (  -0.500000   0.866025   0.000000 )
               a(3) = (   0.000000   0.000000   4.000000 )

     reciprocal axes: (cart. coord. in units 2 pi/alat)
               b(1) = (  1.000000  0.577350 -0.000000 )
               b(2) = (  0.000000  1.154701  0.000000 )
               b(3) = (  0.000000 -0.000000  0.250000 )

     PseudoPot. # 1 for C  read from file:
     ./C.UPF
     MD5 check sum: ead9220225bd72a2f9a48cc2a638047d
     Pseudo is Norm-conserving + core correction, Zval =  4.0
     Generated using ONCVPSP code by D. R. Hamann
     Using radial grid of 1248 points,  4 beta functions with:
                l(1) =   0
                l(2) =   0
                l(3) =   1
                l(4) =   1

     atomic species   valence    mass     pseudopotential
        C              4.00    12.01070     C ( 1.00)

     24 Sym. Ops., with inversion, found (12 have fractional translation)

   Cartesian axes

     site n.     atom                  positions (alat units)
         1           C   tau(   1) = (   0.0000000   0.0000000   0.0000000  )
         2           C   tau(   2) = (   0.0000000   0.5773497   0.0000000  )

     number of k points=    20
                       cart. coord. in units 2pi/alat
        k(    1) = (   0.0625000   0.1082532  -0.1250000), wk =   0.0625000
        k(    2) = (   0.0625000   0.2525907  -0.1250000), wk =   0.1250000
        k(    3) = (   0.0625000   0.3969283  -0.1250000), wk =   0.1250000
        k(    4) = (   0.0625000   0.5412659  -0.1250000), wk =   0.1250000
        k(    5) = (   0.0625000  -0.4690971  -0.1250000), wk =   0.1250000
        k(    6) = (   0.0625000  -0.3247595  -0.1250000), wk =   0.1250000
        k(    7) = (   0.0625000  -0.1804220  -0.1250000), wk =   0.1250000
        k(    8) = (   0.0625000  -0.0360844  -0.1250000), wk =   0.0625000
        k(    9) = (   0.1875000   0.3247595  -0.1250000), wk =   0.0625000
        k(   10) = (   0.1875000   0.4690971  -0.1250000), wk =   0.1250000
        k(   11) = (   0.1875000   0.6134347  -0.1250000), wk =   0.1250000
        k(   12) = (   0.1875000  -0.3969283  -0.1250000), wk =   0.1250000
        k(   13) = (   0.1875000  -0.2525907  -0.1250000), wk =   0.1250000
        k(   14) = (   0.1875000  -0.1082532  -0.1250000), wk =   0.0625000
        k(   15) = (   0.3125000   0.5412659  -0.1250000), wk =   0.0625000
        k(   16) = (   0.3125000   0.6856034  -0.1250000), wk =   0.1250000
        k(   17) = (   0.3125000  -0.3247595  -0.1250000), wk =   0.1250000
        k(   18) = (   0.3125000  -0.1804220  -0.1250000), wk =   0.0625000
        k(   19) = (   0.4375000   0.7577722  -0.1250000), wk =   0.0625000
        k(   20) = (   0.4375000  -0.2525907  -0.1250000), wk =   0.0625000

     Initial potential from superposition of free atoms

     starting charge    7.99991, renormalised to    8.00000

     negative rho (up, down):  4.446E-07 0.000E+00
     Starting wfcs are    8 randomized atomic wfcs

     Self-consistent Calculation

     iteration #  1     ecut=    75.00 Ry     beta= 0.70
     Davidson diagonalization with overlap
     ethr =  1.00E-02,  avg # of iterations =  2.0

     total energy              =     -24.07239237 Ry
     estimated scf accuracy    <       0.17665679 Ry

[...]

     total energy              =     -24.09541613 Ry
     estimated scf accuracy    <       0.00000004 Ry

     iteration #  7     ecut=    75.00 Ry     beta= 0.70
     Davidson diagonalization with overlap
     ethr =  5.04E-10,  avg # of iterations =  5.0

     End of self-consistent calculation

          k = 0.0625 0.1083-0.1250 (  3830 PWs)   bands (ev):

   -19.6826  -7.7068  -4.4522  -4.0185

[...]

          k = 0.4375-0.2526-0.1250 (  3814 PWs)   bands (ev):

   -15.5851 -12.6438  -6.7469  -3.2687

     highest occupied level (ev):    -0.9905

!    total energy              =     -24.09541618 Ry
     estimated scf accuracy    <          6.0E-10 Ry

     The total energy is the sum of the following terms:
     one-electron contribution =     -88.72002925 Ry
     hartree contribution      =      46.25067058 Ry
     xc contribution           =      -8.58832331 Ry
     ewald contribution        =      26.96226581 Ry

     convergence has been achieved in   7 iterations

     Writing output data file ./tmp/graphene.save/

     General routines

     Parallel routines

   This run was terminated on:  11:33: 4   7Jan2024

   JOB DONE.