     Program PWSCF v.6.6 starts on 19Dec2023 at 23:37:22

     Fft bands division:     nmany     =       1
     Reading input from k-in_7.in

     Current dimensions of program PWSCF are:
     Max number of different atomic species (ntypx) = 10
     Max number of k-points (npk) =  40000
     Max angular momentum in pseudopotentials (lmaxx) =  3

     Subspace diagonalization in iterative solution of the eigenvalue problem:
     a serial algorithm will be used

     bravais-lattice index     =            2
     lattice parameter (alat)  =       6.7500  a.u.
     unit-cell volume          =      76.8867 (a.u.)^3
     number of atoms/cell      =            2
     number of atomic types    =            1
     number of electrons       =         8.00
     number of Kohn-Sham states=            4
     kinetic-energy cutoff     =      75.0000  Ry
     charge density cutoff     =     300.0000  Ry
     convergence threshold     =      1.0E-08
     mixing beta               =       0.7000
     number of iterations used =            8  plain     mixing
     Exchange-correlation= PBE
                           (   1   4   3   4   0   0   0)

     celldm(1)=   6.750000  celldm(2)=   0.000000  celldm(3)=   0.000000
     celldm(4)=   0.000000  celldm(5)=   0.000000  celldm(6)=   0.000000

     crystal axes: (cart. coord. in units of alat)
               a(1) = (  -0.500000   0.000000   0.500000 )
               a(2) = (   0.000000   0.500000   0.500000 )
               a(3) = (  -0.500000   0.500000   0.000000 )

     reciprocal axes: (cart. coord. in units 2 pi/alat)
               b(1) = ( -1.000000 -1.000000  1.000000 )
               b(2) = (  1.000000  1.000000  1.000000 )
               b(3) = ( -1.000000  1.000000 -1.000000 )

     PseudoPot. # 1 for C  read from file:
     ./C.UPF
     MD5 check sum: ead9220225bd72a2f9a48cc2a638047d
     Pseudo is Norm-conserving + core correction, Zval =  4.0
     Generated using ONCVPSP code by D. R. Hamann
     Using radial grid of 1248 points,  4 beta functions with:
                l(1) =   0
                l(2) =   0
                l(3) =   1
                l(4) =   1

     atomic species   valence    mass     pseudopotential
        C              4.00    12.01070     C ( 1.00)

     48 Sym. Ops., with inversion, found (24 have fractional translation)

   Cartesian axes

     site n.     atom                  positions (alat units)
         1           C   tau(   1) = (   0.0000000   0.0000000   0.0000000  )
         2           C   tau(   2) = (  -0.2500000   0.2500000   0.2500000  )

     number of k points=    44
                       cart. coord. in units 2pi/alat
        k(    1) = (  -0.0714286   0.0714286   0.0714286), wk =   0.0116618
        k(    2) = (  -0.2142857   0.2142857  -0.0714286), wk =   0.0349854
        k(    3) = (  -0.3571429   0.3571429  -0.2142857), wk =   0.0349854
        k(    4) = (   0.5000000  -0.5000000   0.6428571), wk =   0.0349854
        k(    5) = (   0.3571429  -0.3571429   0.5000000), wk =   0.0349854
        k(    6) = (   0.2142857  -0.2142857   0.3571429), wk =   0.0349854
        k(    7) = (   0.0714286  -0.0714286   0.2142857), wk =   0.0349854
        k(    8) = (  -0.0714286   0.3571429   0.0714286), wk =   0.0349854
        k(    9) = (  -0.2142857   0.5000000  -0.0714286), wk =   0.0699708
        k(   10) = (   0.6428571  -0.3571429   0.7857143), wk =   0.0699708
        k(   11) = (   0.5000000  -0.2142857   0.6428571), wk =   0.0699708
        k(   12) = (   0.3571429  -0.0714286   0.5000000), wk =   0.0699708
        k(   13) = (   0.2142857   0.0714286   0.3571429), wk =   0.0699708
        k(   14) = (  -0.0714286   0.6428571   0.0714286), wk =   0.0349854
        k(   15) = (   0.7857143  -0.2142857   0.9285714), wk =   0.0699708
        k(   16) = (   0.6428571  -0.0714286   0.7857143), wk =   0.0699708
        k(   17) = (   0.5000000   0.0714286   0.6428571), wk =   0.0699708
        k(   18) = (   0.3571429   0.2142857   0.5000000), wk =   0.0699708
        k(   19) = (  -0.0714286  -1.0714286   0.0714286), wk =   0.0349854
        k(   20) = (  -0.2142857  -0.9285714  -0.0714286), wk =   0.0699708
        k(   21) = (  -0.3571429  -0.7857143  -0.2142857), wk =   0.0699708
        k(   22) = (  -0.5000000  -0.6428571  -0.3571429), wk =   0.0349854
        k(   23) = (  -0.0714286  -0.7857143   0.0714286), wk =   0.0349854
        k(   24) = (  -0.2142857  -0.6428571  -0.0714286), wk =   0.0699708
        k(   25) = (  -0.0714286  -0.5000000   0.0714286), wk =   0.0349854
        k(   26) = (  -0.2142857   0.2142857   0.2142857), wk =   0.0116618
        k(   27) = (  -0.3571429   0.3571429   0.0714286), wk =   0.0349854
        k(   28) = (   0.5000000  -0.5000000   0.9285714), wk =   0.0349854
        k(   29) = (   0.3571429  -0.3571429   0.7857143), wk =   0.0349854
        k(   30) = (   0.2142857  -0.2142857   0.6428571), wk =   0.0349854
        k(   31) = (  -0.2142857   0.5000000   0.2142857), wk =   0.0349854
        k(   32) = (   0.6428571  -0.3571429   1.0714286), wk =   0.0699708
        k(   33) = (   0.5000000  -0.2142857   0.9285714), wk =   0.0699708
        k(   34) = (   0.3571429  -0.0714286   0.7857143), wk =   0.0699708
        k(   35) = (  -0.2142857  -1.2142857   0.2142857), wk =   0.0349854
        k(   36) = (  -0.3571429  -1.0714286   0.0714286), wk =   0.0699708
        k(   37) = (  -0.5000000  -0.9285714  -0.0714286), wk =   0.0349854
        k(   38) = (  -0.2142857  -0.9285714   0.2142857), wk =   0.0349854
        k(   39) = (  -0.3571429   0.3571429   0.3571429), wk =   0.0116618
        k(   40) = (   0.5000000  -0.5000000   1.2142857), wk =   0.0349854
        k(   41) = (   0.3571429  -0.3571429   1.0714286), wk =   0.0349854
        k(   42) = (  -0.3571429  -1.3571429   0.3571429), wk =   0.0349854
        k(   43) = (  -0.5000000  -1.2142857   0.2142857), wk =   0.0349854
        k(   44) = (   0.5000000  -0.5000000  -0.5000000), wk =   0.0058309

     Initial potential from superposition of free atoms

     starting charge    7.99991, renormalised to    8.00000
     Starting wfcs are    8 randomized atomic wfcs

     Self-consistent Calculation

     iteration #  1     ecut=    75.00 Ry     beta= 0.70
     Davidson diagonalization with overlap
     ethr =  1.00E-02,  avg # of iterations =  2.0

     total energy              =     -24.06750287 Ry
     estimated scf accuracy    <       0.10702649 Ry

[...]

     total energy              =     -24.07544843 Ry
     estimated scf accuracy    <       0.00000001 Ry

     iteration #  7     ecut=    75.00 Ry     beta= 0.70
     Davidson diagonalization with overlap
     ethr =  1.39E-10,  avg # of iterations =  4.5

     End of self-consistent calculation

          k =-0.0714 0.0714 0.0714 (   872 PWs)   bands (ev):

    -8.0096  12.3498  13.0375  13.0375

[...]

          k = 0.5000-0.5000 0.6429 (   838 PWs)   bands (ev):

[...]

          k =-0.5000-1.2143 0.2143 (   836 PWs)   bands (ev):

[...]

          k = 0.5000-0.5000-0.5000 (   832 PWs)   bands (ev):

    -2.3994  -0.0587  10.4799  10.4799

     highest occupied level (ev):    13.0375

!    total energy              =     -24.07544844 Ry
     estimated scf accuracy    <          6.1E-10 Ry

     The total energy is the sum of the following terms:
     one-electron contribution =       8.19818414 Ry
     hartree contribution      =       1.93641212 Ry
     xc contribution           =      -8.67263176 Ry
     ewald contribution        =     -25.53741295 Ry

     convergence has been achieved in   7 iterations

     Writing output data file ./tmp/diamond.save/

     General routines

     Parallel routines

   This run was terminated on:  23:37:25  19Dec2023

   JOB DONE.